SYSTEM=TiO2
ENCUT=520
ISTART=0
ICHARG=2
ISMEAR=0
ISPIN=2   
EDIFF=1E-04
EDIFFG=-0.01
SIGMA=0.05 
NPAR=4
LPLANE=.TRUE.
NSW=1000
IBRION=1   
ISIF=3
LWAVE=F
LCHARG=F
LREAL=Auto
ALGO=FAST
PREC=Normal
LDAU=.TRUE.
LDAUTYFE=2
LDAUL=2 -1
LDAUU=value 0
LDAUJ=1 0
LMAXMIX=4
LDAUPRINT=2

