SYSTEM=WO3
ENCUT=520
ISTART=0
ICHARG=2
NSW=1000
IBRION=1
ISIF=3
ISMEAR=0
SIGMA=0.05
NPAR=4
ISPIN=1
LPLANE=.TRUE.
LREAL=Auto
EDIFF=1E-05
EDIFFG=-0.01
LWAVE=.FALSE.
LCHARG=.FALSE.
ALGO=Fast
PREC=Normal
LDAU=.TRUE.
LDAUTYFE=2
LDAUL=2 -1 
LDAUU= value 0
LDAUJ=0.5 0
LMAXMIX=4
LDAUPRINT=2
