Automatic generation
0
Monhkorst-Pack
6 6 5
0 0 0
