Automatic generation
0
Monhkorst-Pack #非六方晶系用MP方法
2 2 2 #资料上是2 2 2，可以做收敛性测试
0 0 0
