W1 O3
1.0
        7.2969999313         0.0000000000         0.0000000000
        0.0000000000         7.5390000343         0.0000000000
       -0.1220999918         0.0000000000         7.6870305516
    W    O
    8   24
Direct
     0.254000008         0.037000000         0.282000005
     0.745999992         0.963000000         0.717999995
     0.245999992         0.537000000         0.217999995
     0.754000008         0.463000000         0.782000005
     0.250000000         0.023000000         0.783999979
     0.750000000         0.976999998         0.216000021
     0.250000000         0.523000002         0.716000021
     0.750000000         0.476999998         0.283999979
     0.005000000         0.041999999         0.210999995
     0.995000005         0.958000004         0.789000034
     0.495000005         0.541999996         0.289000005
     0.504999995         0.458000004         0.710999966
     0.992999971         0.474000007         0.217999995
     0.007000029         0.526000023         0.782000005
     0.507000029         0.973999977         0.282000005
     0.492999971         0.025999993         0.717999995
     0.287999988         0.261999995         0.286000013
     0.712000012         0.738000035         0.713999987
     0.212000012         0.761999965         0.213999987
     0.787999988         0.238000005         0.786000013
     0.210999995         0.259000003         0.730000019
     0.789000034         0.740999997         0.269999981
     0.289000005         0.759000003         0.769999981
     0.710999966         0.240999997         0.230000019
     0.291999996         0.043000001         0.008000000
     0.708000004         0.957000017         0.991999984
     0.208000004         0.542999983         0.492000014
     0.791999996         0.456999987         0.508000016
     0.279000014         0.486999989         0.992999971
     0.720999956         0.513000011         0.007000029
     0.220999986         0.986999989         0.507000029
     0.779000044         0.013000011         0.492999971
