CIF file
1.0
        3.8060998917         0.0000000000         0.0000000000
        0.0000000000         3.8060998917         0.0000000000
        0.0000000000         0.0000000000         9.7243995667
   Ti    O
    4    8
Direct
     0.500000000         0.500000000         0.000000000
     0.500000000         0.000000000         0.250000000
     0.000000000         0.000000000         0.500000000
     0.000000000         0.500000000         0.750000000
     0.000000000         0.500000000         0.956409991
     0.500000000         0.500000000         0.206410006
     0.500000000         0.000000000         0.043590002
     0.000000000         0.000000000         0.293590009
     0.500000000         0.000000000         0.456409991
     0.000000000         0.000000000         0.706409991
     0.000000000         0.500000000         0.543590009
     0.500000000         0.500000000         0.793590009
