SYSTEM=WO3
ENCUT=520
ISTART=1
NEDOS=2000
ICHARG=11
NELM=400
LORBIT=10
ISPIN=1
ISMEAR=0
SIGMA=0.1
NPAR=4
LPLANE=.TRUE.
LREAL=Auto
EDIFF=1E-05
EDIFFG=-0.01
PREC=Normal
ALGO=Fast
LORBIT=10
LDAU=.TRUE.
LDAUTYFE=2
LDAUL=2 -1 
LDAUU=value 0
LDAUJ=0.5 0
LMAXMIX=4
LDAUPRINT=2