SYSTEM=TiO2
ENCUT=520
ISTART=1
NEDOS=1500
LORBIT=10
ICHARG=11
NELM=400
ISMEAR=0
ISPIN=2   
EDIFF=1E-04
EDIFFG=-0.01
SIGMA=0.01 
NPAR=4
LPLANE=.TRUE.
LREAL=Auto
ALGO=FAST
PREC=Normal
LDAU=.TRUE.
LDAUTYFE=2
LDAUL=2 -1
LDAUU=value 0
LDAUJ=1 0
LMAXMIX=4
LDAUPRINT=2

