SYSTEM=WO3
ENCUT=520
ISTART=0
ICHARG=2
ISMEAR=0
SIGMA=0.01
NPAR=4
ISPIN=1
LPLANE=.TRUE.
LREAL=Auto
EDIFF=1E-05
EDIFFG=-0.01
ALGO=Fast
PREC=Normal
NELM=400
LORBIT=10
LDAU=.TRUE.
LDAUTYFE=2
LDAUL=2 -1 
LDAUU=value 0
LDAUJ=0.5 0
LMAXMIX=4
LDAUPRINT=2