Automatic generation
0
Monhkorst-Pack 
4 4 4 
0 0 0
