Automatic generation
0
Monhkorst-Pack
12 12 10
0 0 0
